Problem:    09
Rows:       25
Columns:    72
Non-zeros:  576
Status:     OPTIMAL
Objective:  obj1 = 15.17710438 (MINimum)

   No.   Row name   St   Activity     Lower bound   Upper bound    Marginal
------ ------------ -- ------------- ------------- ------------- -------------
     1 Effetto[1]   NS             0            -0             =         < eps
     2 Effetto[2]   NS             0            -0             =         < eps
     3 Effetto[3]   NS             0            -0             =         < eps
     4 Effetto[4]   NS             0            -0             =         < eps
     5 Effetto[5]   NS             0            -0             =         < eps
     6 Effetto[6]   NS             0            -0             =         < eps
     7 Effetto[7]   NS             0            -0             =         < eps
     8 Effetto[8]   NS             0            -0             =     -0.116675 
     9 Effetto[9]   NS             0            -0             =    -0.0778504 
    10 Effetto[10]  NS             0            -0             =         < eps
    11 Effetto[11]  NS             0            -0             =         < eps
    12 Effetto[12]  NS             0            -0             =         < eps
    13 Effetto[13]  NS             0            -0             =     -0.107982 
    14 Effetto[14]  NS             0            -0             =    -0.0184591 
    15 Effetto[15]  NS             0            -0             =     -0.110755 
    16 Effetto[16]  NS             0            -0             =         < eps
    17 Effetto[17]  NS             0            -0             =         < eps
    18 Effetto[18]  NS             0            -0             =         < eps
    19 Effetto[19]  NS             0            -0             =         < eps
    20 Effetto[20]  NS             0            -0             =     -0.117647 
    21 Effetto[21]  NS             0            -0             =         < eps
    22 Effetto[22]  NS             0            -0             =         < eps
    23 Effetto[23]  NS             0            -0             =     -0.176471 
    24 Effetto[24]  NS             0            -0             =         < eps
    25 obj1         B        15.1771                             

   No. Column name  St   Activity     Lower bound   Upper bound    Marginal
------ ------------ -- ------------- ------------- ------------- -------------
     1 x[1,Prismil] NL             0             0                    0.879402 
     2 x[1,Cilindren]
                    NL             0             0                     0.93776 
     3 x[24,Prismil]
                    NL             0             0                    0.918307 
     4 x[24,Cilindren]
                    NL             0             0                    0.976665 
     5 x[23,Prismil]
                    NL             0             0                    0.684721 
     6 x[23,Cilindren]
                    NL             0             0                    0.558824 
     7 x[22,Prismil]
                    NL             0             0                    0.439468 
     8 x[22,Cilindren]
                    NL             0             0                    0.294118 
     9 x[21,Prismil]
                    NL             0             0                     0.28245 
    10 x[21,Cilindren]
                    NL             0             0                   0.0294118 
    11 x[20,Prismil]
                    NL             0             0                    0.382353 
    12 x[20,Cilindren]
                    B         1.0269             0               
    13 x[19,Prismil]
                    NL             0             0                    0.311765 
    14 x[19,Cilindren]
                    B        5.29747             0               
    15 x[18,Prismil]
                    NL             0             0                    0.282353 
    16 x[18,Cilindren]
                    NL             0             0                   0.0882353 
    17 x[17,Prismil]
                    NL             0             0                    0.529412 
    18 x[17,Cilindren]
                    NL             0             0                    0.405882 
    19 x[16,Prismil]
                    NL             0             0                    0.652941 
    20 x[16,Cilindren]
                    NL             0             0                    0.576471 
    21 x[15,Prismil]
                    NL             0             0                    0.580927 
    22 x[15,Cilindren]
                    NL             0             0                    0.511349 
    23 x[14,Prismil]
                    NL             0             0                    0.469459 
    24 x[14,Cilindren]
                    NL             0             0                    0.428481 
    25 x[2,Prismil] NL             0             0                    0.818031 
    26 x[2,Cilindren]
                    NL             0             0                    0.887187 
    27 x[3,Prismil] NL             0             0                    0.735362 
    28 x[3,Cilindren]
                    NL             0             0                    0.770492 
    29 x[4,Prismil] NL             0             0                    0.622165 
    30 x[4,Cilindren]
                    NL             0             0                    0.533199 
    31 x[5,Prismil] NL             0             0                    0.478717 
    32 x[5,Cilindren]
                    NL             0             0                    0.278151 
    33 x[6,Prismil] NL             0             0                     0.22063 
    34 x[6,Cilindren]
                    B        2.42105             0               
    35 x[7,Prismil] NL             0             0                    0.162292 
    36 x[7,Cilindren]
                    B       0.421053             0               
    37 x[8,Prismil] NL             0             0                    0.344274 
    38 x[8,Cilindren]
                    NL             0             0                    0.177714 
    39 x[9,Prismil] NL             0             0                    0.529697 
    40 x[9,Cilindren]
                    NL             0             0                    0.376212 
    41 x[10,Prismil]
                    NL             0             0                    0.516387 
    42 x[10,Cilindren]
                    NL             0             0                    0.346564 
    43 x[11,Prismil]
                    NL             0             0                    0.276197 
    44 x[11,Cilindren]
                    B        1.13514             0               
    45 x[12,Prismil]
                    NL             0             0                    0.248861 
    46 x[12,Cilindren]
                    B        3.53656             0               
    47 x[13,Prismil]
                    NL             0             0                    0.221985 
    48 x[13,Cilindren]
                    B        1.33893             0               
    49 y[1]         B        5.24858             5            45 
    50 y[2]         B        2.83782             1            45 
    51 y[3]         B        1.47025             0            45 
    52 y[4]         B        0.20538             0            45 
    53 y[5]         B              0             0            45 
    54 y[6]         B        6.05263             0            45 
    55 y[7]         B        10.7368             4            45 
    56 y[8]         NL            15            15            45      0.116675 
    57 y[9]         NL            12            12            45     0.0778504 
    58 y[10]        B        8.94737             5            45 
    59 y[11]        B        7.73259             4            45 
    60 y[12]        B        15.7083             3            45 
    61 y[13]        NL            25            25            45      0.107982 
    62 y[14]        NL            30            30            45     0.0184591 
    63 y[15]        NL            25            25            45      0.110755 
    64 y[16]        B        17.6681            15            45 
    65 y[17]        B        10.1162             5            45 
    66 y[18]        B        4.93805             4            45 
    67 y[19]        B        15.8226             3            45 
    68 y[20]        NL            25            25            45      0.117647 
    69 y[21]        B        33.5115            30            45 
    70 y[22]        B        26.8378            25            45 
    71 y[23]        NL            20            20            45      0.176471 
    72 y[24]        B        11.0269            10            45 

Karush-Kuhn-Tucker optimality conditions:

KKT.PE: max.abs.err = 0.00e+000 on row 0
        max.rel.err = 0.00e+000 on row 0
        High quality

KKT.PB: max.abs.err = 0.00e+000 on row 0
        max.rel.err = 0.00e+000 on row 0
        High quality

KKT.DE: max.abs.err = 2.22e-016 on column 44
        max.rel.err = 8.47e-017 on column 41
        High quality

KKT.DB: max.abs.err = 0.00e+000 on row 0
        max.rel.err = 0.00e+000 on row 0
        High quality

End of output
